set VV := 0 1 2 3 ;
set VS := 0 1 2 3 4 5 6 7 8 9 10 11 ;
param cv := 
0 19
1 20
2 16
3 23
;
param cs := 
0 31
1 29
2 39
3 20
4 40
5 25
6 39
7 34
8 38
9 27
10 33
11 23
;
param bv:	 0 1 2 3 := 
		0 0 16 19 0 
		1 0 0 0 24 
		2 0 0 0 0 
		3 0 0 0 0 
;
param bs:	 0 1 2 3 4 5 6 7 8 9 10 11 := 
		0 0 0 25 0 0 0 0 0 0 0 0 0 
		1 0 0 0 0 30 0 0 0 0 0 0 0 
		2 25 0 0 29 0 0 0 0 22 22 0 21 
		3 0 0 29 0 0 20 0 0 0 0 0 0 
		4 0 30 0 0 0 0 0 0 0 0 0 30 
		5 0 0 0 20 0 0 0 20 0 0 0 32 
		6 0 0 0 0 0 0 0 0 24 0 0 0 
		7 0 0 0 0 0 20 0 0 0 0 0 0 
		8 0 0 22 0 0 0 24 0 0 0 0 0 
		9 0 0 22 0 0 0 0 0 0 0 34 0 
		10 0 0 0 0 0 0 0 0 0 34 0 29 
		11 0 0 21 0 30 32 0 0 0 0 29 0 
;
